NAME: random89
TYPE: TSP
DIMENSION: 89
EDGE_WEIGHT_TYPE: EXPLICIT
EDGE_WEIGHT_FORMAT: FULL_MATRIX
EDGE_WEIGHT_SECTION
0 29 25 125 125 125 125 125 20 36 21 125 31 32 125 16 125 38 125 125 24 125 10 38 43 28 125 36 125 125 25 125 125 125 30 125 125 28 125 30 45 125 125 125 125 125 125 125 125 18 125 125 14 18 125 125 27 36 125 125 125 125 125 5 125 125 125 52 125 125 125 125 43 125 125 125 27 5 9 125 125 125 125 125 15 24 125 125 125
29 0 32 125 125 125 125 35 125 125 33 125 125 125 125 15 8 9 125 125 32 125 125 125 125 4 125 125 26 125 39 125 125 125 15 125 125 33 33 125 125 125 125 7 125 125 125 125 22 125 125 125 17 125 24 125 22 125 125 125 125 125 125 32 125 125 125 72 125 125 125 125 125 125 125 125 125 24 24 125 19 25 125 125 38 125 125 125 125
25 32 0 125 125 48 125 125 16 29 5 125 30 125 64 29 40 38 125 125 47 41 30 125 125 28 125 125 56 40 9 125 125 125 42 125 125 125 63 125 125 125 125 38 125 125 125 79 52 29 125 125 29 125 125 125 44 125 125 125 125 125 125 30 125 125 125 41 125 47 125 125 125 43 125 125 125 24 16 125 49 55 125 125 18 125 125 125 125
125 125 125 0 8 125 24 9 125 125 125 125 125 20 125 33 125 125 11 125 18 125 125 29 125 125 11 40 24 125 125 125 125 125 25 125 37 13 23 125 125 125 125 125 125 125 125 125 125 125 125 125 33 30 19 125 18 125 125 6 125 35 46 39 125 36 18 125 125 125 125 125 125 125 20 125 20 125 125 42 26 44 15 41 125 32 20 10 125
125 125 125 8 0 125 30 1 125 125 125 125 125 27 125 32 125 39 19 125 22 125 125 37 125 125 19 125 16 125 125 125 125 125 21 125 125 17 14 125 125 125 125 125 125 49 125 125 34 125 125 125 33 125 12 125 17 125 125 10 125 44 125 125 125 44 21 125 125 125 125 125 125 125 23 57 26 125 125 125 20 37 22 47 125 125 26 18 125
125 125 48 125 125 0 125 125 33 24 125 125 19 125 17 125 125 125 125 125 125 18 34 125 26 125 125 125 125 26 40 125 125 125 125 40 125 125 125 13 41 125 125 125 125 125 41 34 125 24 125 7 125 125 125 125 125 37 9 125 6 125 125 125 63 125 125 31 32 15 125 125 125 13 125 125 125 125 125 125 125 125 125 125 33 125 125 125 125
125 125 125 24 30 125 0 31 125 125 125 125 125 29 125 125 125 125 21 30 125 125 125 31 125 125 24 125 46 125 125 125 125 37 125 125 31 125 42 125 125 31 125 125 31 22 125 125 125 125 25 125 125 125 42 74 125 125 125 20 125 24 30 125 125 20 13 125 125 125 125 29 125 125 11 27 125 125 125 31 125 66 10 18 125 125 4 23 26
125 35 125 9 1 125 31 0 125 125 125 125 125 28 125 31 31 38 20 125 22 125 125 37 125 39 20 125 15 125 125 125 125 125 20 125 125 17 14 125 125 125 125 125 125 50 125 125 33 125 125 125 32 35 11 125 16 125 125 11 125 44 125 41 125 125 22 125 125 125 125 125 125 125 24 58 26 39 46 125 19 36 23 48 125 38 27 19 125
20 125 16 125 125 33 125 125 0 17 11 125 15 125 48 33 125 49 125 125 125 28 20 125 46 38 125 50 125 29 8 125 125 125 125 57 125 125 125 21 53 125 125 125 125 125 125 125 125 15 125 125 31 37 125 125 125 46 35 125 31 125 125 24 125 125 125 32 54 33 125 125 54 29 125 125 125 23 18 125 125 125 125 125 6 41 125 125 125
36 125 29 125 125 24 125 125 17 0 25 125 8 125 41 125 125 65 125 125 125 12 32 125 46 54 125 125 125 13 19 125 125 125 125 125 125 125 125 19 125 125 125 125 125 125 125 58 125 22 125 125 125 125 125 125 125 51 30 125 26 125 125 125 125 125 125 16 125 18 125 125 125 15 125 125 125 125 34 125 125 125 125 125 21 125 125 125 125
21 33 5 125 125 125 125 125 11 25 0 125 26 125 125 28 41 40 125 125 44 37 26 125 55 30 125 125 125 37 6 125 125 125 42 125 125 125 125 32 125 125 125 40 125 125 125 125 54 24 125 125 27 39 125 125 43 53 125 125 125 125 125 26 125 125 125 39 125 43 125 125 125 39 125 125 125 22 14 125 125 58 125 125 13 45 125 125 125
125 125 125 125 125 125 125 125 125 125 125 0 125 125 125 125 125 125 46 30 125 125 125 32 125 125 125 31 125 125 125 17 8 15 125 32 21 125 125 125 30 14 19 125 27 26 125 125 125 125 22 125 125 125 125 31 125 36 125 125 125 21 16 125 35 24 125 125 125 125 4 18 28 125 125 36 125 125 125 15 125 125 45 125 125 43 125 125 21
31 125 30 125 125 19 125 125 15 8 26 125 0 125 35 125 125 125 125 125 125 14 26 125 38 125 125 50 125 18 21 125 125 125 125 52 125 125 125 11 50 125 125 125 125 125 125 52 125 15 125 24 125 43 125 125 125 43 23 125 19 125 125 32 125 125 125 23 46 18 125 125 52 14 125 125 125 125 32 125 125 125 125 125 18 45 125 125 125
32 125 125 20 27 125 29 28 125 125 125 125 125 0 125 125 125 125 11 125 12 125 32 11 45 125 9 20 125 125 125 125 125 125 125 125 21 13 125 125 34 125 27 125 125 125 125 125 125 42 125 125 31 15 125 125 24 29 125 24 125 24 37 28 125 28 33 125 125 125 125 125 30 125 125 125 6 125 125 28 125 125 21 125 45 13 28 10 125
125 125 64 125 125 17 125 125 48 41 125 125 35 125 0 125 125 125 125 125 125 33 44 125 20 125 125 46 125 41 55 49 125 125 125 33 125 125 125 27 36 125 125 125 125 125 26 19 125 37 125 11 125 125 125 52 125 36 14 125 17 125 125 125 49 125 125 46 22 29 125 125 41 29 125 125 125 125 125 125 125 125 125 125 48 51 125 125 125
16 15 29 33 32 125 125 31 33 125 28 125 125 125 125 0 20 24 125 125 20 125 25 125 125 16 32 125 29 125 34 125 125 125 15 125 125 22 35 125 125 125 125 20 125 125 125 125 33 34 125 125 2 24 24 125 15 125 125 125 125 125 125 18 125 125 125 65 125 125 125 125 125 125 125 125 26 11 15 125 23 37 125 125 28 125 125 33 125
125 8 40 125 125 125 125 31 125 125 41 125 125 125 125 20 0 6 125 125 34 125 125 125 125 12 125 125 20 125 47 125 125 125 13 125 125 33 26 125 125 125 125 2 125 125 125 125 14 125 125 125 22 125 20 125 22 125 125 125 125 125 125 125 125 125 125 80 125 125 125 125 125 125 125 125 125 125 32 125 13 17 125 125 125 125 125 125 125
38 9 38 125 39 125 125 38 49 65 40 125 125 125 125 24 6 0 125 125 125 125 125 125 125 10 125 125 26 77 46 125 125 125 19 125 125 125 32 125 125 125 125 5 125 125 125 125 15 125 125 125 26 125 26 125 28 125 125 125 125 125 125 125 125 125 60 79 125 82 125 125 125 125 125 125 125 33 33 125 19 18 125 85 46 125 125 125 125
125 125 125 11 19 125 21 20 125 125 125 46 125 11 125 125 125 125 0 125 15 125 41 18 125 125 3 30 125 125 125 125 125 125 125 125 26 13 33 125 125 39 34 125 125 34 125 125 125 125 36 125 125 24 28 125 23 39 125 14 125 25 37 125 125 27 22 125 125 125 125 38 39 125 23 125 13 125 125 31 125 125 11 39 125 24 19 2 36
125 125 125 125 125 125 30 125 125 125 125 30 125 125 125 125 125 125 125 0 125 125 125 125 125 125 125 125 125 125 125 46 37 15 125 125 125 125 71 125 125 16 125 125 3 11 125 125 125 125 11 125 125 125 125 60 125 125 125 125 125 26 16 125 64 20 41 125 125 125 125 13 125 125 39 6 125 125 125 125 125 125 37 20 125 125 33 125 12
24 32 47 18 22 125 125 22 125 125 44 125 125 12 125 20 34 125 15 125 0 125 28 23 125 35 12 29 30 125 125 125 125 125 22 125 125 4 33 125 125 125 125 125 125 125 125 125 125 38 125 125 20 13 23 125 12 36 125 23 125 125 125 21 125 125 125 125 125 125 125 125 125 125 125 125 7 23 31 125 28 125 125 125 39 17 125 13 125
125 125 41 125 125 18 125 125 28 12 37 125 14 125 33 125 125 125 125 125 125 0 39 125 43 125 125 125 125 8 32 125 125 125 125 125 125 125 125 20 125 125 125 125 125 125 58 52 125 28 125 25 125 125 125 125 125 52 26 125 22 125 125 125 81 125 125 13 49 6 125 125 125 5 125 125 125 125 125 125 125 125 125 125 32 125 125 125 125
10 125 30 125 125 34 125 125 20 32 26 125 26 32 44 25 125 125 41 125 28 39 0 35 34 38 38 30 125 125 27 55 125 125 125 41 44 32 125 22 36 125 42 125 125 125 125 125 125 11 125 125 23 17 125 125 34 28 31 125 29 51 125 7 125 125 125 125 42 125 125 125 36 38 125 125 28 14 18 125 125 125 125 125 14 21 125 125 125
38 125 125 29 37 125 31 37 125 125 125 32 125 11 125 125 125 125 18 125 23 125 35 0 38 125 18 13 125 125 125 34 125 125 125 125 11 24 125 125 25 30 16 125 125 32 125 125 125 43 31 125 125 19 125 125 125 22 125 32 125 17 29 33 125 23 38 125 125 125 33 31 20 125 125 125 16 125 125 19 125 125 25 125 49 14 31 19 31
43 125 125 125 125 26 125 125 46 46 55 125 38 45 20 125 125 125 125 125 125 43 34 38 0 125 125 26 125 51 54 32 41 125 125 15 40 125 125 27 16 125 31 125 125 125 23 21 125 31 125 20 125 37 125 41 125 16 17 125 21 125 125 39 40 125 125 56 8 41 43 125 21 39 125 125 45 125 51 125 125 125 125 125 43 33 125 125 125
28 4 28 125 125 125 125 39 38 54 30 125 125 125 125 16 12 10 125 125 35 125 38 125 125 0 125 125 30 67 36 125 125 125 19 125 125 36 37 125 125 125 125 10 125 125 125 125 25 45 125 125 18 125 28 125 26 125 125 125 125 125 125 32 125 125 125 69 125 72 125 125 125 125 125 125 125 24 22 125 23 28 125 125 36 125 125 125 125
125 125 125 11 19 125 24 20 125 125 125 125 125 9 125 32 125 125 3 125 12 125 38 18 125 125 0 29 125 125 125 125 125 125 30 125 26 10 33 125 125 125 125 125 125 125 125 125 125 125 125 125 32 21 27 125 20 38 125 15 125 27 39 33 125 29 25 125 125 125 125 125 125 125 125 125 10 125 125 32 125 125 14 125 125 21 22 1 125
36 125 125 40 125 125 125 125 50 125 125 31 50 20 46 125 125 125 30 125 29 125 30 13 26 125 29 0 125 125 125 27 31 41 125 21 16 32 125 40 14 35 12 125 125 125 125 125 125 36 125 125 125 20 125 46 125 10 39 44 125 25 35 31 47 32 125 125 29 125 31 125 9 125 125 125 23 125 125 23 125 125 37 125 44 14 125 30 125
125 26 56 24 16 125 46 15 125 125 125 125 125 125 125 29 20 26 125 125 30 125 125 125 125 30 125 125 0 125 125 125 125 125 15 125 125 27 7 125 125 125 125 22 125 66 125 125 18 125 125 125 31 125 7 125 19 125 125 26 125 125 125 125 125 125 36 125 125 125 125 125 125 125 38 73 125 125 125 125 7 20 38 62 125 125 42 125 125
125 125 40 125 125 26 125 125 29 13 37 125 18 125 41 125 125 77 125 125 125 8 125 125 51 67 125 125 125 0 31 125 125 125 125 125 125 125 125 27 125 125 125 125 125 125 66 59 125 34 125 33 125 125 125 125 125 125 34 125 30 125 125 125 88 125 125 5 57 12 125 125 125 12 125 125 125 125 47 125 125 125 125 125 34 125 125 125 125
25 39 9 125 125 40 125 125 8 19 6 125 21 125 55 34 47 46 125 125 125 32 27 125 54 36 125 125 125 31 0 125 125 125 125 125 125 125 125 29 125 125 125 46 125 125 125 71 60 23 125 125 32 125 125 125 125 53 125 125 125 125 125 125 125 125 125 33 125 38 125 125 125 34 125 125 125 26 19 125 125 63 125 125 12 125 125 125 125
125 125 125 125 125 125 125 125 125 125 125 17 125 125 49 125 125 125 125 46 125 125 55 34 32 125 125 27 125 125 125 0 10 32 125 17 26 125 125 57 19 30 17 125 44 41 31 37 125 58 37 125 125 125 125 20 125 27 49 125 125 31 31 125 23 125 125 125 27 73 12 34 19 125 125 52 125 125 125 24 125 125 125 125 125 41 125 125 36
125 125 125 125 125 125 125 125 125 125 125 8 125 125 125 125 125 125 125 37 125 125 125 125 41 125 125 31 125 125 125 10 0 23 125 26 25 125 125 125 26 22 19 125 35 34 40 46 125 125 29 125 125 125 125 24 125 33 125 125 125 27 23 125 28 125 125 125 37 125 3 26 25 125 125 43 125 125 125 20 125 125 125 125 125 125 125 125 29
125 125 125 125 125 125 37 125 125 125 125 15 125 125 125 125 125 125 125 15 125 125 125 125 125 125 125 41 125 125 125 32 23 0 125 46 27 125 125 125 43 7 30 125 12 15 62 68 125 125 11 125 125 125 125 45 125 125 125 125 125 21 9 125 49 19 125 125 125 125 20 8 40 125 125 21 125 125 125 19 125 125 125 33 125 125 125 125 11
30 15 42 25 21 125 125 20 125 125 42 125 125 125 125 15 13 19 125 125 22 125 125 125 125 19 30 125 15 125 125 125 125 125 0 125 125 20 21 125 125 125 125 14 125 125 125 125 22 125 125 125 17 32 10 125 10 125 125 125 125 125 125 31 125 125 42 125 125 125 125 125 125 125 125 125 29 26 30 125 9 25 125 67 43 125 125 30 125
125 125 125 125 125 40 125 125 57 125 125 32 52 125 33 125 125 125 125 125 125 125 41 125 15 125 125 21 125 125 125 17 26 46 125 0 30 125 125 41 7 125 20 125 57 125 22 25 125 42 125 34 125 125 125 30 125 14 32 125 36 125 125 125 29 125 125 125 12 56 28 125 12 54 125 125 125 125 125 33 125 125 125 125 53 33 125 125 125
125 125 125 37 125 125 31 125 125 125 125 21 125 21 125 125 125 125 26 125 125 125 44 11 40 125 26 16 125 125 125 26 25 27 125 30 0 125 125 125 24 20 10 125 125 24 125 125 125 51 23 125 125 30 125 46 125 25 125 38 125 9 19 125 49 16 41 125 125 125 23 22 19 125 125 125 26 125 125 8 125 125 28 125 125 24 32 27 22
28 33 125 13 17 125 125 17 125 125 125 125 125 13 125 22 33 125 13 125 4 125 32 24 125 36 10 32 27 125 125 125 125 125 20 125 125 0 29 125 125 125 125 125 125 125 125 125 125 125 125 125 22 17 20 125 11 40 125 19 125 36 125 26 125 125 31 125 125 125 125 125 125 125 125 125 9 26 34 125 26 45 24 51 125 21 125 11 125
125 33 63 23 14 125 42 14 125 125 125 125 125 125 125 35 26 32 33 71 33 125 125 125 125 37 33 125 7 125 125 125 125 125 21 125 125 29 0 125 125 125 125 28 73 63 125 125 23 125 66 125 37 125 11 125 23 125 125 23 125 58 125 125 125 58 31 125 125 125 125 125 125 125 34 69 38 125 125 125 14 25 36 57 125 125 38 32 125
30 125 125 125 125 13 125 125 21 19 32 125 11 125 27 125 125 125 125 125 125 20 22 125 27 125 125 40 125 27 29 57 125 125 125 41 125 125 125 0 39 125 125 125 125 125 47 43 125 11 125 16 125 37 125 125 125 33 14 125 10 125 125 29 67 125 125 32 35 22 125 125 41 17 125 125 125 125 33 125 125 125 125 125 21 37 125 125 125
45 125 125 125 125 41 125 125 53 125 125 30 50 34 36 125 125 125 125 125 125 125 36 25 16 125 125 14 125 125 125 19 26 43 125 7 24 125 125 39 0 125 15 125 53 125 29 32 125 39 125 36 125 32 125 35 125 8 33 125 36 125 125 40 35 125 125 125 17 57 27 125 5 54 125 125 37 125 125 28 125 125 125 125 49 26 125 125 125
125 125 125 125 125 125 31 125 125 125 125 14 125 125 125 125 125 125 39 16 125 125 125 30 125 125 125 35 125 125 125 30 22 7 125 125 20 125 125 125 125 0 25 125 14 12 125 125 125 125 7 125 125 125 125 46 125 125 125 125 125 14 2 125 49 12 125 125 125 125 19 4 35 125 125 22 125 125 125 12 125 125 35 125 125 125 125 125 7
125 125 125 125 125 125 125 125 125 125 125 19 125 27 125 125 125 125 34 125 125 125 42 16 31 125 125 12 125 125 125 17 19 30 125 20 10 125 125 125 15 25 0 125 39 125 41 45 125 48 125 125 125 32 125 38 125 18 125 125 125 18 25 125 40 25 125 125 31 125 19 28 10 125 125 125 32 125 125 13 125 125 38 125 125 25 125 125 29
125 7 38 125 125 125 125 125 125 125 40 125 125 125 125 20 2 5 125 125 125 125 125 125 125 10 125 125 22 125 46 125 125 125 14 125 125 125 28 125 125 125 125 0 125 125 125 125 15 125 125 125 22 125 22 125 24 125 125 125 125 125 125 125 125 125 125 79 125 125 125 125 125 125 125 125 125 125 31 125 15 18 125 125 125 125 125 125 125
125 125 125 125 125 125 31 125 125 125 125 27 125 125 125 125 125 125 125 3 125 125 125 125 125 125 125 125 125 125 125 44 35 12 125 57 125 125 73 125 53 14 39 125 0 11 74 80 125 125 11 125 125 125 125 57 125 125 125 125 125 25 14 125 61 19 43 125 125 125 32 11 49 125 41 9 125 125 125 26 125 125 38 22 125 125 35 125 11
125 125 125 125 49 125 22 50 125 125 125 26 125 125 125 125 125 125 34 11 125 125 125 32 125 125 125 125 66 125 125 41 34 15 125 125 24 125 63 125 125 12 125 125 11 0 125 125 125 125 4 125 125 125 61 58 125 125 125 40 125 16 10 125 61 9 34 125 125 125 125 9 125 125 32 13 125 125 125 19 125 86 27 19 125 125 25 125 5
125 125 125 125 125 41 125 125 125 125 125 125 125 125 26 125 125 125 125 125 125 58 125 125 23 125 125 125 125 66 125 31 40 62 125 22 125 125 125 47 29 125 41 125 74 125 0 8 125 54 125 34 125 125 125 27 125 35 34 125 125 125 125 125 24 125 125 71 15 54 43 125 34 54 125 125 125 125 125 125 125 125 125 125 125 125 125 125 125
125 125 79 125 125 34 125 125 125 58 125 125 52 125 19 125 125 125 125 125 125 52 125 125 21 125 125 125 125 59 71 37 46 68 125 25 125 125 125 43 32 125 45 125 80 125 8 0 125 50 125 28 125 125 125 34 125 36 29 125 33 125 125 125 31 125 125 64 15 47 49 125 37 47 125 125 125 125 125 125 125 125 125 125 125 125 125 125 125
125 22 52 125 34 125 125 33 125 125 54 125 125 125 125 33 14 15 125 125 125 125 125 125 125 25 125 125 18 125 60 125 125 125 22 125 125 125 23 125 125 125 125 15 125 125 125 125 0 125 125 125 125 125 23 125 31 125 125 125 125 125 125 125 125 125 54 93 125 125 125 125 125 125 125 125 125 125 45 125 16 4 125 80 125 125 125 125 125
18 125 29 125 125 24 125 125 15 22 24 125 15 42 37 34 125 125 125 125 38 28 11 43 31 45 125 36 125 34 23 58 125 125 125 42 51 125 125 11 39 125 48 125 125 125 54 50 125 0 125 26 32 27 125 125 125 31 23 125 21 125 125 18 71 125 125 38 40 32 125 125 40 27 125 125 38 23 23 125 125 125 125 125 12 30 125 125 125
125 125 125 125 125 125 25 125 125 125 125 22 125 125 125 125 125 125 36 11 125 125 125 31 125 125 125 125 125 125 125 37 29 11 125 125 23 125 66 125 125 7 125 125 11 4 125 125 125 125 0 125 125 125 125 53 125 125 125 43 125 14 6 125 57 9 38 125 125 125 125 4 125 125 36 16 125 125 125 16 125 125 30 23 125 125 29 125 1
125 125 125 125 125 7 125 125 125 125 125 125 24 125 11 125 125 125 125 125 125 25 125 125 20 125 125 125 125 33 125 125 125 125 125 34 125 125 125 16 36 125 125 125 125 125 34 28 125 26 125 0 125 125 125 125 125 33 4 125 6 125 125 125 56 125 125 38 25 22 125 125 125 20 125 125 125 125 125 125 125 125 125 125 125 125 125 125 125
14 17 29 33 33 125 125 32 31 125 27 125 125 31 125 2 22 26 125 125 20 125 23 125 125 18 32 125 31 125 32 125 125 125 17 125 125 22 37 125 125 125 125 22 125 125 125 125 125 32 125 125 0 22 25 125 16 45 125 125 125 125 125 16 125 125 125 64 125 125 125 125 125 125 125 125 25 9 14 125 25 125 125 125 26 29 125 33 125
18 125 125 30 125 125 125 35 37 125 39 125 43 15 125 24 125 125 24 125 13 125 17 19 37 125 21 20 125 125 125 125 125 125 32 125 30 17 125 37 32 125 32 125 125 125 125 125 125 27 125 125 22 0 35 125 24 24 125 125 125 36 125 13 125 125 125 125 125 125 125 125 29 125 125 125 11 20 27 125 125 125 125 125 31 7 125 22 125
125 24 125 19 12 125 42 11 125 125 125 125 125 125 125 24 20 26 28 125 23 125 125 125 125 28 27 125 7 125 125 125 125 125 10 125 125 20 11 125 125 125 125 22 125 61 125 125 23 125 125 125 25 35 0 125 12 125 125 22 125 125 125 38 125 125 34 125 125 125 125 125 125 125 36 69 29 34 39 125 8 26 34 59 125 125 38 26 125
125 125 125 125 125 125 74 125 125 125 125 31 125 125 52 125 125 125 125 60 125 125 125 125 41 125 125 46 125 125 125 20 24 45 125 30 46 125 125 125 35 46 38 125 57 58 27 34 125 125 53 125 125 125 125 0 125 43 125 125 125 125 47 125 4 55 125 125 34 80 27 49 37 125 125 66 125 125 125 44 125 125 125 77 125 125 125 125 53
27 22 44 18 17 125 125 16 125 125 43 125 125 24 125 15 22 28 23 125 12 125 34 125 125 26 20 125 19 125 125 125 125 125 10 125 125 11 23 125 125 125 125 24 125 125 125 125 31 125 125 125 16 24 12 125 0 125 125 24 125 125 125 26 125 125 36 125 125 125 125 125 125 125 125 125 19 23 29 125 16 35 125 59 41 29 125 21 125
36 125 125 125 125 37 125 125 46 51 53 36 43 29 36 125 125 125 39 125 36 52 28 22 16 125 38 10 125 125 53 27 33 125 125 14 25 40 125 33 8 125 18 125 125 125 35 36 125 31 125 33 45 24 125 43 125 0 29 125 32 34 125 31 44 125 125 125 20 52 34 125 9 49 125 125 31 40 45 31 125 125 125 125 41 19 125 125 125
125 125 125 125 125 9 125 125 35 30 125 125 23 125 14 125 125 125 125 125 125 26 31 125 17 125 125 39 125 34 125 49 125 125 125 32 125 125 125 14 33 125 125 125 125 125 34 29 125 23 125 4 125 125 125 125 125 29 0 125 5 125 125 125 55 125 125 39 23 24 125 125 36 22 125 125 125 125 125 125 125 125 125 125 34 40 125 125 125
125 125 125 6 10 125 20 11 125 125 125 125 125 24 125 125 125 125 14 125 23 125 125 32 125 125 15 44 26 125 125 125 125 125 125 125 38 19 23 125 125 125 125 125 125 40 125 125 125 125 43 125 125 125 22 125 24 125 125 0 125 35 45 125 125 35 13 125 125 125 125 125 125 125 14 47 25 125 125 42 125 47 13 37 125 37 16 14 43
125 125 125 125 125 6 125 125 31 26 125 125 19 125 17 125 125 125 125 125 125 22 29 125 21 125 125 125 125 30 125 125 125 125 125 36 125 125 125 10 36 125 125 125 125 125 125 33 125 21 125 6 125 125 125 125 125 32 5 125 0 125 125 125 125 125 125 35 28 21 125 125 125 18 125 125 125 125 125 125 125 125 125 125 31 125 125 125 125
125 125 125 35 44 125 24 44 125 125 125 21 125 24 125 125 125 125 25 26 125 125 51 17 125 125 27 25 125 125 125 31 27 21 125 125 9 36 58 125 125 14 18 125 25 16 125 125 125 125 14 125 125 36 125 125 125 34 125 35 125 0 13 125 125 7 35 125 125 125 24 15 28 125 34 29 30 125 125 7 125 125 24 32 125 31 26 27 14
125 125 125 46 125 125 30 125 125 125 125 16 125 37 125 125 125 125 37 16 125 125 125 29 125 125 39 35 125 125 125 31 23 9 125 125 19 125 125 125 125 2 25 125 14 10 125 125 125 125 6 125 125 125 125 47 125 125 125 45 125 13 0 125 125 11 42 125 125 125 20 3 35 125 40 21 125 125 125 12 125 125 33 30 125 43 33 39 5
5 32 30 39 125 125 125 41 24 125 26 125 32 28 125 18 125 125 125 125 21 125 7 33 39 32 33 31 125 125 125 125 125 125 31 125 125 26 125 29 40 125 125 125 125 125 125 125 125 18 125 125 16 13 38 125 26 31 125 125 125 125 125 0 125 125 125 125 125 125 125 125 38 125 125 125 23 9 15 125 125 125 125 125 18 19 125 34 125
125 125 125 125 125 63 125 125 125 125 125 35 125 125 49 125 125 125 125 64 125 81 125 125 40 125 125 47 125 88 125 23 28 49 125 29 49 125 125 67 35 49 40 125 61 61 24 31 125 71 57 56 125 125 125 4 125 44 55 125 125 125 125 125 0 125 125 93 32 77 31 53 38 76 125 70 125 125 125 46 125 125 125 125 125 125 125 125 56
125 125 125 36 44 125 20 125 125 125 125 24 125 28 125 125 125 125 27 20 125 125 125 23 125 125 29 32 125 125 125 125 125 19 125 125 16 125 58 125 125 12 25 125 19 9 125 125 125 125 9 125 125 125 125 55 125 125 125 35 125 7 11 125 125 0 32 125 125 125 125 11 125 125 30 22 125 125 125 12 125 125 22 25 125 37 23 29 9
125 125 125 18 21 125 13 22 125 125 125 125 125 33 125 125 125 60 22 41 125 125 125 38 125 125 25 125 36 125 125 125 125 125 42 125 41 31 31 125 125 125 125 125 43 34 125 125 54 125 38 125 125 125 34 125 36 125 125 13 125 35 42 125 125 32 0 125 125 125 125 125 125 125 2 38 125 125 125 42 41 56 13 26 125 125 9 23 39
52 72 41 125 125 31 125 125 32 16 39 125 23 125 46 65 80 79 125 125 125 13 125 125 56 69 125 125 125 5 33 125 125 125 125 125 125 125 125 32 125 125 125 79 125 125 71 64 93 38 125 38 64 125 125 125 125 125 39 125 35 125 125 125 93 125 125 0 63 17 125 125 125 17 125 125 125 55 50 125 125 96 125 125 38 125 125 125 125
125 125 125 125 125 32 125 125 54 125 125 125 46 125 22 125 125 125 125 125 125 49 42 125 8 125 125 29 125 57 125 27 37 125 125 12 125 125 125 35 17 125 31 125 125 125 15 15 125 40 125 25 125 125 125 34 125 20 23 125 28 125 125 125 32 125 125 63 0 47 39 125 22 45 125 125 125 125 125 125 125 125 125 125 51 39 125 125 125
125 125 47 125 125 15 125 125 33 18 43 125 18 125 29 125 125 82 125 125 125 6 125 125 41 72 125 125 125 12 38 73 125 125 125 56 125 125 125 22 57 125 125 125 125 125 54 47 125 32 125 22 125 125 125 80 125 52 24 125 21 125 125 125 77 125 125 17 47 0 125 125 125 5 125 125 125 125 50 125 125 125 125 125 125 125 125 125 125
125 125 125 125 125 125 125 125 125 125 125 4 125 125 125 125 125 125 125 125 125 125 125 33 43 125 125 31 125 125 125 12 3 20 125 28 23 125 125 125 27 19 19 125 32 125 43 49 125 125 125 125 125 125 125 27 125 34 125 125 125 24 20 125 31 125 125 125 39 125 0 22 26 125 125 125 125 125 125 17 125 125 125 125 125 43 125 125 125
125 125 125 125 125 125 29 125 125 125 125 18 125 125 125 125 125 125 38 13 125 125 125 31 125 125 125 125 125 125 125 34 26 8 125 125 22 125 125 125 125 4 28 125 11 9 125 125 125 125 4 125 125 125 125 49 125 125 125 125 125 15 3 125 53 11 125 125 125 125 22 0 125 125 125 18 125 125 125 15 125 125 33 27 125 125 125 125 3
43 125 125 125 125 125 125 125 54 125 125 28 52 30 41 125 125 125 39 125 125 125 36 20 21 125 125 9 125 125 125 19 25 40 125 12 19 125 125 41 5 35 10 125 49 125 34 37 125 40 125 125 125 29 125 37 125 9 36 125 125 28 35 38 38 125 125 125 22 125 26 125 0 125 125 125 32 125 125 24 125 125 125 125 49 23 125 125 125
125 125 43 125 125 13 125 125 29 15 39 125 14 125 29 125 125 125 125 125 125 5 38 125 39 125 125 125 125 12 34 125 125 125 125 54 125 125 125 17 54 125 125 125 125 125 54 47 125 27 125 20 125 125 125 125 125 49 22 125 18 125 125 125 76 125 125 17 45 5 125 125 125 0 125 125 125 125 125 125 125 125 125 125 32 125 125 125 125
125 125 125 20 23 125 11 24 125 125 125 125 125 125 125 125 125 125 23 39 125 125 125 125 125 125 125 125 38 125 125 125 125 125 125 125 125 125 34 125 125 125 125 125 41 32 125 125 125 125 36 125 125 125 36 125 125 125 125 14 125 34 40 125 125 30 2 125 125 125 125 125 125 125 0 36 125 125 125 125 125 58 13 24 125 125 8 125 37
125 125 125 125 57 125 27 58 125 125 125 36 125 125 125 125 125 125 125 6 125 125 125 125 125 125 125 125 73 125 125 52 43 21 125 125 125 125 69 125 125 22 125 125 9 13 125 125 125 125 16 125 125 125 69 66 125 125 125 47 125 29 21 125 70 22 38 125 125 125 125 18 125 125 36 0 125 125 125 125 125 93 36 14 125 125 31 125 16
27 125 125 20 26 125 125 26 125 125 125 125 125 6 125 26 125 125 13 125 7 125 28 16 45 125 10 23 125 125 125 125 125 125 29 125 26 9 38 125 37 125 32 125 125 125 125 125 125 38 125 125 25 11 29 125 19 31 125 25 125 30 125 23 125 125 125 125 125 125 125 125 32 125 125 125 0 26 34 125 125 125 24 125 40 12 125 12 125
5 24 24 125 125 125 125 39 23 125 22 125 125 125 125 11 125 33 125 125 23 125 14 125 125 24 125 125 125 125 26 125 125 125 26 125 125 26 125 125 125 125 125 125 125 125 125 125 125 23 125 125 9 20 34 125 23 40 125 125 125 125 125 9 125 125 125 55 125 125 125 125 125 125 125 125 26 0 8 125 125 125 125 125 18 26 125 125 125
9 24 16 125 125 125 125 46 18 34 14 125 32 125 125 15 32 33 125 125 31 125 18 125 51 22 125 125 125 47 19 125 125 125 30 125 125 34 125 33 125 125 125 31 125 125 125 125 45 23 125 125 14 27 39 125 29 45 125 125 125 125 125 15 125 125 125 50 125 50 125 125 125 125 125 125 34 8 0 125 38 49 125 125 14 33 125 125 125
125 125 125 42 125 125 31 125 125 125 125 15 125 28 125 125 125 125 31 125 125 125 125 19 125 125 32 23 125 125 125 24 20 19 125 33 8 125 125 125 28 12 13 125 26 19 125 125 125 125 16 125 125 125 125 44 125 31 125 42 125 7 12 125 46 12 42 125 125 125 17 15 24 125 125 125 125 125 125 0 125 125 31 125 125 32 33 33 16
125 19 49 26 20 125 125 19 125 125 125 125 125 125 125 23 13 19 125 125 28 125 125 125 125 23 125 125 7 125 125 125 125 125 9 125 125 26 14 125 125 125 125 15 125 125 125 125 16 125 125 125 25 125 8 125 16 125 125 125 125 125 125 125 125 125 41 125 125 125 125 125 125 125 125 125 125 125 38 125 0 19 125 66 125 125 125 125 125
125 25 55 44 37 125 66 36 125 125 58 125 125 125 125 37 17 18 125 125 125 125 125 125 125 28 125 125 20 125 63 125 125 125 25 125 125 45 25 125 125 125 125 18 125 86 125 125 4 125 125 125 125 125 26 125 35 125 125 47 125 125 125 125 125 125 56 96 125 125 125 125 125 125 58 93 125 125 49 125 19 0 59 82 125 125 62 125 125
125 125 125 15 22 125 10 23 125 125 125 45 125 21 125 125 125 125 11 37 125 125 125 25 125 125 14 37 38 125 125 125 125 125 125 125 28 24 36 125 125 35 38 125 38 27 125 125 125 125 30 125 125 125 34 125 125 125 125 13 125 24 33 125 125 22 13 125 125 125 125 33 125 125 13 36 24 125 125 31 125 59 0 28 125 34 8 13 30
125 125 125 41 47 125 18 48 125 125 125 125 125 125 125 125 125 85 39 20 125 125 125 125 125 125 125 125 62 125 125 125 125 33 67 125 125 51 57 125 125 125 125 125 22 19 125 125 80 125 23 125 125 125 59 77 59 125 125 37 125 32 30 125 125 25 26 125 125 125 125 27 125 125 24 14 125 125 125 125 66 82 28 0 125 125 21 125 24
15 38 18 125 125 33 125 125 6 21 13 125 18 45 48 28 125 46 125 125 39 32 14 49 43 36 125 44 125 34 12 125 125 125 43 53 125 125 125 21 49 125 125 125 125 125 125 125 125 12 125 125 26 31 125 125 41 41 34 125 31 125 125 18 125 125 125 38 51 125 125 125 49 32 125 125 40 18 14 125 125 125 125 125 0 35 125 125 125
24 125 125 32 125 125 125 38 41 125 45 43 45 13 51 125 125 125 24 125 17 125 21 14 33 125 21 14 125 125 125 41 125 125 125 33 24 21 125 37 26 125 25 125 125 125 125 125 125 30 125 125 29 7 125 125 29 19 40 37 125 31 43 19 125 37 125 125 39 125 43 125 23 125 125 125 12 26 33 32 125 125 34 125 35 0 125 23 125
125 125 125 20 26 125 4 27 125 125 125 125 125 28 125 125 125 125 19 33 125 125 125 31 125 125 22 125 42 125 125 125 125 125 125 125 32 125 38 125 125 125 125 125 35 25 125 125 125 125 29 125 125 125 38 125 125 125 125 16 125 26 33 125 125 23 9 125 125 125 125 125 125 125 8 31 125 125 125 33 125 62 8 21 125 125 0 21 29
125 125 125 10 18 125 23 19 125 125 125 125 125 10 125 33 125 125 2 125 13 125 125 19 125 125 1 30 125 125 125 125 125 125 30 125 27 11 32 125 125 125 125 125 125 125 125 125 125 125 125 125 33 22 26 125 21 125 125 14 125 27 39 34 125 29 23 125 125 125 125 125 125 125 125 125 12 125 125 33 125 125 13 125 125 23 21 0 125
125 125 125 125 125 125 26 125 125 125 125 21 125 125 125 125 125 125 36 12 125 125 125 31 125 125 125 125 125 125 125 36 29 11 125 125 22 125 125 125 125 7 29 125 11 5 125 125 125 125 1 125 125 125 125 53 125 125 125 43 125 14 5 125 56 9 39 125 125 125 125 3 125 125 37 16 125 125 125 16 125 125 30 24 125 125 29 125 0
EOF
